NAME : n40w120.003.357.tour
COMMENT : Length = 357
COMMENT : Found by LKH [Keld Helsgaun] Tue May  2 05:19:04 2017
TYPE : TOUR
DIMENSION : 41
TOUR_SECTION
1
13
34
7
2
14
18
25
36
3
39
38
11
17
6
27
24
4
15
32
9
12
28
26
22
23
37
30
10
20
33
16
35
21
29
8
41
40
31
5
19
-1
EOF
